
  15    0


   0   9 2 3 4 5 6 11 12 13 14 
   7   2 9 8 
   8   2 9 7 
   2   1 10 
   8   1 8 
   3   1 7 
   7   1 15
   1   1 15
  10   1 15
   2   1 15
  10   1 15
   4   1 15
   6   1 15
   3   1 15
   0   0 
